8
-1,29,-1,-1,-1,-1,-1,-1
29,-1,13,23,-1,-1,10,10
-1,-1,-1,23,-1,-1,-1,-1
-1,-1,-1,-1,51,-1,-1,-1
81,80,-1,-1,-1,20,-1,-1
-1,32,-1,-1,-1,-1,-1,-1
-1,-1,-1,-1,66,-1,-1,-1
-1,-1,-1,-1,22,-1,-1,-1

0,6,8,2,4,9,5,3
